db/data/18596868217998131549151325682147811133.z3.out
unsat
-------------------
180.082613629
